BAYES
100
2 2 2 2 2 2 2 2 2 2 2 2 2 2 2 2 2 2 2 2 2 2 2 2 2 2 2 2 2 2 2 2 2 2 2 2 2 2 2 2 2 2 2 2 2 2 2 2 2 2 2 2 2 2 2 2 2 2 2 2 2 2 2 2 2 2 2 2 2 2 2 2 2 2 2 2 2 2 2 2 2 2 2 2 2 2 2 2 2 2 2 2 2 2 2 2 2 2 2 2
100
3 10 1 0
3 11 2 1
3 12 3 2
3 13 4 3
3 14 5 4
3 15 6 5
3 16 7 6
3 17 8 7
3 18 9 8
2 19 9
3 20 11 10
3 21 12 11
3 22 13 12
3 23 14 13
3 24 15 14
3 25 16 15
3 26 17 16
3 27 18 17
3 28 19 18
2 29 19
3 30 21 20
3 31 22 21
3 32 23 22
3 33 24 23
3 34 25 24
3 35 26 25
3 36 27 26
3 37 28 27
3 38 29 28
2 39 29
3 40 31 30
3 41 32 31
3 42 33 32
3 43 34 33
3 44 35 34
3 45 36 35
3 46 37 36
3 47 38 37
3 48 39 38
2 49 39
3 50 41 40
3 51 42 41
3 52 43 42
3 53 44 43
3 54 45 44
3 55 46 45
3 56 47 46
3 57 48 47
3 58 49 48
2 59 49
3 60 51 50
3 61 52 51
3 62 53 52
3 63 54 53
3 64 55 54
3 65 56 55
3 66 57 56
3 67 58 57
3 68 59 58
2 69 59
3 70 61 60
3 71 62 61
3 72 63 62
3 73 64 63
3 74 65 64
3 75 66 65
3 76 67 66
3 77 68 67
3 78 69 68
2 79 69
3 80 71 70
3 81 72 71
3 82 73 72
3 83 74 73
3 84 75 74
3 85 76 75
3 86 77 76
3 87 78 77
3 88 79 78
2 89 79
3 90 81 80
3 91 82 81
3 92 83 82
3 93 84 83
3 94 85 84
3 95 86 85
3 96 87 86
3 97 88 87
3 98 89 88
2 99 89
2 91 90
2 92 91
2 93 92
2 94 93
2 95 94
2 96 95
2 97 96
2 98 97
2 99 98
1  99
8
0 1 0 1 0 1 1 0
8
1 0 1 0 0 1 0 1
8
1 0 0 1 1 0 0 1
8
0 1 1 0 1 0 1 0
8
1 0 1 0 1 0 0 1
8
1 0 1 0 1 0 1 0
8
1 0 0 1 0 1 1 0
8
0 1 0 1 0 1 1 0
8
1 0 0 1 1 0 0 1
4
0 1 1 0
8
1 0 0 1 0 1 1 0
8
1 0 0 1 0 1 1 0
8
0 1 0 1 1 0 0 1
8
0.3405650618352706 0.6594349381647294 0.010142758020072485 0.9898572419799275 0.5485324523925009 0.4514675476074992 0.49872666692558154 0.5012733330744185
8
1 0 0 1 0 1 0 1
8
1 0 1 0 0 1 0 1
8
1 0 0 1 0 1 1 0
8
0 1 0 1 1 0 0 1
8
1 0 0 1 0 1 1 0
4
0 1 1 0
8
0 1 1 0 1 0 1 0
8
0 1 1 0 0 1 0 1
8
0 1 0 1 1 0 1 0
8
0 1 0 1 1 0 1 0
8
1 0 1 0 1 0 0 1
8
0 1 0 1 1 0 0 1
8
1 0 0 1 1 0 1 0
8
0 1 1 0 1 0 0 1
8
1 0 0 1 1 0 0 1
4
0 1 1 0
8
0 1 0 1 0 1 0 1
8
0.5204814744390598 0.4795185255609401 0.543194913227075 0.45680508677292503 0.37639493914444194 0.6236050608555581 0.2660449161942969 0.7339550838057031
8
0 1 1 0 1 0 0 1
8
1 0 1 0 0 1 0 1
8
1 0 0 1 0 1 1 0
8
0 1 0 1 0 1 1 0
8
1 0 0 1 1 0 1 0
8
0 1 1 0 1 0 0 1
8
1 0 1 0 0 1 1 0
4
1 0 1 0
8
1 0 1 0 1 0 1 0
8
0 1 0 1 0 1 1 0
8
0 1 0 1 1 0 1 0
8
0 1 1 0 1 0 0 1
8
1 0 0 1 1 0 1 0
8
1 0 1 0 0 1 0 1
8
1 0 0 1 0 1 0 1
8
1 0 0 1 0 1 0 1
8
0.9317925573500724 0.06820744264992763 0.08737565780019353 0.9126243421998065 0.5464306255110588 0.4535693744889412 0.07539288321493162 0.9246071167850684
4
0 1 0 1
8
0 1 1 0 0 1 1 0
8
0 1 0 1 0 1 0 1
8
0.5653184911789305 0.43468150882106965 0.16969708897481725 0.8303029110251828 0.482521452235249 0.517478547764751 0.5988217426228416 0.40117825737715845
8
1 0 0 1 1 0 1 0
8
0 1 1 0 1 0 1 0
8
0 1 0 1 1 0 0 1
8
0 1 0 1 1 0 0 1
8
1 0 0 1 1 0 0 1
8
1 0 1 0 0 1 1 0
4
1 0 1 0
8
0 1 1 0 1 0 0 1
8
0 1 0 1 0 1 1 0
8
1 0 1 0 0 1 0 1
8
1 0 0 1 0 1 1 0
8
1 0 0 1 0 1 0 1
8
0 1 0 1 0 1 0 1
8
1 0 1 0 1 0 0 1
8
0 1 0 1 1 0 0 1
8
1 0 0 1 0 1 1 0
4
0 1 1 0
8
0.31199570332331344 0.6880042966766865 0.5421772534661086 0.45782274653389143 0.42342540696912706 0.5765745930308729 0.4885130579990456 0.5114869420009546
8
0.929852491012336 0.07014750898766399 0.7640852226180835 0.2359147773819165 0.5496315757441075 0.45036842425589263 0.3295415422900271 0.6704584577099729
8
1 0 1 0 1 0 0 1
8
0 1 0 1 0 1 1 0
8
1 0 1 0 1 0 1 0
8
0 1 0 1 0 1 0 1
8
0 1 1 0 0 1 0 1
8
0 1 1 0 0 1 0 1
8
1 0 0 1 0 1 0 1
4
1 0 1 0
8
1 0 1 0 1 0 1 0
8
0.482988130404761 0.517011869595239 0.9594630279487721 0.040536972051227846 0.48237102226865125 0.5176289777313487 0.5119659585106062 0.4880340414893939
8
0 1 0 1 0 1 0 1
8
0 1 1 0 0 1 0 1
8
0 1 0 1 1 0 1 0
8
0.6548432641251767 0.3451567358748234 0.2959213823651838 0.7040786176348163 0.4317864252472064 0.5682135747527935 0.4727744497131326 0.5272255502868674
8
1 0 0 1 1 0 0 1
8
0 1 0 1 1 0 1 0
8
0 1 0 1 0 1 0 1
4
0.5476030030123213 0.4523969969876785 0.6417539578322703 0.3582460421677297
4
1 0 1 0
4
0 1 1 0
4
0.694787581944717 0.30521241805528293 0.030430408737716692 0.9695695912622833
4
1 0 0 1
4
1 0 0 1
4
0 1 0 1
4
1 0 1 0
4
1 0 1 0
4
1 0 0 1
2
0 1
